attachment/milp/2-tiling/tiling-small.dat
data;

param Width := 6;
param Height := 4;

end;
